\ENCODING=ISO-8859-1
\Problem name: 

Minimize
 obj: r
Subject To
 h11:          x111 + x121 + x131  = 2
 h12:          x112 + x122 + x132  = 3
 h13:          x113 + x123 + x133  = 4
 h21:          x211 + x221 + x231  = 3
 h22:          x212 + x222 + x232  = 4
 h23:          x213 + x223 + x233  = 5
 h31:          x311 + x321 + x331  = 4
 h32:          x312 + x322 + x332  = 5
 h33:          x313 + x323 + x333  = 6
 pathUtil11:   U11111 + U11121 + U11131  = 3
 pathUtil12:   U12112 + U12122 + U12132  = 3
 pathUtil13:   U13113 + U13123 + U13133  = 3
 pathUtil21:   U21211 + U21221 + U21231  = 3
 pathUtil22:   U22212 + U22222 + U22232  = 3
 pathUtil23:   U23213 + U23223 + U23233  = 3
 pathUtil31:   U31311 + U31321 + U31331  = 3
 pathUtil32:   U32312 + U32322 + U32332  = 3
 pathUtil33:   U33313 + U33323 + U33333  = 3
 splith11:     - x111 + 0.666666666666667 U11111  = 0
 splith11:     - x121 + 0.666666666666667 U11121  = 0
 splith11:     - x131 + 0.666666666666667 U11131  = 0
 splith12:     - x112 + U12112  = 0
 splith12:     - x122 + U12122  = 0
 splith12:     - x132 + U12132  = 0
 splith13:     - x113 + 1.33333333333333 U13113  = 0
 splith13:     - x123 + 1.33333333333333 U13123  = 0
 splith13:     - x133 + 1.33333333333333 U13133  = 0
 splith21:     - x211 + U21211  = 0
 splith21:     - x221 + U21221  = 0
 splith21:     - x231 + U21231  = 0
 splith22:     - x212 + 1.33333333333333 U22212  = 0
 splith22:     - x222 + 1.33333333333333 U22222  = 0
 splith22:     - x232 + 1.33333333333333 U22232  = 0
 splith23:     - x213 + 1.66666666666667 U23213  = 0
 splith23:     - x223 + 1.66666666666667 U23223  = 0
 splith23:     - x233 + 1.66666666666667 U23233  = 0
 splith31:     - x311 + 1.33333333333333 U31311  = 0
 splith31:     - x321 + 1.33333333333333 U31321  = 0
 splith31:     - x331 + 1.33333333333333 U31331  = 0
 splith32:     - x312 + 1.66666666666667 U32312  = 0
 splith32:     - x322 + 1.66666666666667 U32322  = 0
 splith32:     - x332 + 1.66666666666667 U32332  = 0
 splith33:     - x313 + 2 U33313  = 0
 splith33:     - x323 + 2 U33323  = 0
 splith33:     - x333 + 2 U33333  = 0
 capacC11:     x111 + x112 + x113 - c11  = 0
 capacC12:     x121 + x122 + x123 - c12  = 0
 capacC13:     x131 + x132 + x133 - c13  = 0
 capacC21:     x211 + x212 + x213 - c21  = 0
 capacC22:     x221 + x222 + x223 - c22  = 0
 capacC23:     x231 + x232 + x233 - c23  = 0
 capacC31:     x311 + x312 + x313 - c31  = 0
 capacC32:     x321 + x322 + x323 - c32  = 0
 capacC33:     x331 + x332 + x333 - c33  = 0
 capacD11:     x111 + x211 + x311 - d11  = 0
 capacD12:     x112 + x212 + x312 - d12  = 0
 capacD13:     x113 + x213 + x313 - d13  = 0
 capacD21:     x121 + x221 + x321 - d21  = 0
 capacD22:     x122 + x222 + x322 - d22  = 0
 capacD23:     x123 + x223 + x323 - d23  = 0
 capacD31:     x131 + x231 + x331 - d31  = 0
 capacD32:     x132 + x232 + x332 - d32  = 0
 capacD33:     x133 + x233 + x333 - d33  = 0
 load1:        x111 + x112 + x113 + x211 + x212 + x213 + x311 + x312 + x313
               - loadk1  = 0
 load2:        x121 + x122 + x123 + x221 + x222 + x223 + x321 + x322 + x323
               - loadk2  = 0
 load3:        x131 + x132 + x133 + x231 + x232 + x233 + x331 + x332 + x333
               - loadk3  = 0
 loadbalance1: - 0.0277777777777778 loadk1 + r >= 0
 loadbalance2: - 0.0277777777777778 loadk2 + r >= 0
 loadbalance3: - 0.0277777777777778 loadk3 + r >= 0
Bounds
 0 <= U11111 <= 1
 0 <= U11121 <= 1
 0 <= U11131 <= 1
 0 <= U12112 <= 1
 0 <= U12122 <= 1
 0 <= U12132 <= 1
 0 <= U13113 <= 1
 0 <= U13123 <= 1
 0 <= U13133 <= 1
 0 <= U21211 <= 1
 0 <= U21221 <= 1
 0 <= U21231 <= 1
 0 <= U22212 <= 1
 0 <= U22222 <= 1
 0 <= U22232 <= 1
 0 <= U23213 <= 1
 0 <= U23223 <= 1
 0 <= U23233 <= 1
 0 <= U31311 <= 1
 0 <= U31321 <= 1
 0 <= U31331 <= 1
 0 <= U32312 <= 1
 0 <= U32322 <= 1
 0 <= U32332 <= 1
 0 <= U33313 <= 1
 0 <= U33323 <= 1
 0 <= U33333 <= 1
 0 <= r <= 1
Binaries
 U11111  U11121  U11131  U12112  U12122  U12132  U13113  U13123  U13133 
 U21211  U21221  U21231  U22212  U22222  U22232  U23213  U23223  U23233 
 U31311  U31321  U31331  U32312  U32322  U32332  U33313  U33323  U33333 
End
